MLT06
Position Depot: Random
Horizon for Depot: Large
Position of customers: Mixt
Distribution of the demand: Small
Width of time windows: Tight
Distribution of the service: Small

VEHICLE 
NUMBER 	 CAPACITY 
 6 	 	 120 
 
CUSTOMER
CUST NO. 	 XCOORD.  	 YCOORD. 	 DEMAND 	 READY TIME 	 DUE DATE 	 SERVICE TIME 
 0 	 	 135 	 	 538 	 	 0 	 	 0 	 	 4044 	 	 0 
  1 	 	 410 	 	 455 	 	 7 	 	 847 	 	 1018 	 	 60 
  2 	 	 181 	 	 106 	 	 9 	 	 1764 	 	 1891 	 	 87 
  3 	 	 696 	 	 164 	 	 9 	 	 1657 	 	 1836 	 	 83 
  4 	 	 433 	 	 769 	 	 10 	 	 441 	 	 587 	 	 97 
  5 	 	 98 	 	 436 	 	 7 	 	 173 	 	 264 	 	 52 
  6 	 	 502 	 	 557 	 	 7 	 	 1678 	 	 1811 	 	 81 
  7 	 	 235 	 	 23 	 	 9 	 	 2678 	 	 2801 	 	 81 
  8 	 	 102 	 	 192 	 	 8 	 	 2535 	 	 2605 	 	 53 
  9 	 	 391 	 	 552 	 	 5 	 	 2197 	 	 2283 	 	 86 
  10 	 	 434 	 	 709 	 	 6 	 	 2054 	 	 2201 	 	 56 
  11 	 	 146 	 	 309 	 	 7 	 	 3200 	 	 3306 	 	 65 
  12 	 	 136 	 	 503 	 	 8 	 	 2608 	 	 2729 	 	 63 
  13 	 	 433 	 	 672 	 	 7 	 	 3609 	 	 3805 	 	 94 
  14 	 	 184 	 	 111 	 	 6 	 	 578 	 	 672 	 	 74 
  15 	 	 528 	 	 433 	 	 7 	 	 3268 	 	 3366 	 	 55 
  16 	 	 643 	 	 195 	 	 6 	 	 1240 	 	 1403 	 	 67 
  17 	 	 498 	 	 584 	 	 10 	 	 2866 	 	 3014 	 	 64 
  18 	 	 390 	 	 424 	 	 5 	 	 571 	 	 626 	 	 94 
  19 	 	 222 	 	 121 	 	 9 	 	 2332 	 	 2520 	 	 56 
  20 	 	 94 	 	 473 	 	 9 	 	 2711 	 	 2832 	 	 75 
  21 	 	 91 	 	 391 	 	 5 	 	 3503 	 	 3668 	 	 65 
  22 	 	 56 	 	 535 	 	 9 	 	 3028 	 	 3176 	 	 65 
  23 	 	 385 	 	 755 	 	 10 	 	 784 	 	 860 	 	 87 
  24 	 	 488 	 	 516 	 	 10 	 	 3768 	 	 3840 	 	 50 
  25 	 	 448 	 	 543 	 	 5 	 	 676 	 	 869 	 	 73 
  26 	 	 581 	 	 229 	 	 10 	 	 839 	 	 897 	 	 76 
  27 	 	 569 	 	 90 	 	 8 	 	 1857 	 	 1943 	 	 92 
  28 	 	 222 	 	 143 	 	 10 	 	 1957 	 	 2066 	 	 64 
  29 	 	 109 	 	 489 	 	 9 	 	 1891 	 	 1996 	 	 88 
  30 	 	 447 	 	 441 	 	 6 	 	 1656 	 	 1837 	 	 85 
  31 	 	 405 	 	 450 	 	 6 	 	 426 	 	 622 	 	 59 
  32 	 	 112 	 	 35 	 	 5 	 	 3894 	 	 4044 	 	 89 
  33 	 	 54 	 	 592 	 	 9 	 	 1607 	 	 1747 	 	 76 
  34 	 	 728 	 	 189 	 	 5 	 	 3186 	 	 3320 	 	 87 
  35 	 	 125 	 	 29 	 	 5 	 	 1243 	 	 1378 	 	 81 
  36 	 	 247 	 	 411 	 	 10 	 	 1476 	 	 1557 	 	 90 
  37 	 	 448 	 	 755 	 	 9 	 	 3220 	 	 3390 	 	 59 
  38 	 	 464 	 	 562 	 	 5 	 	 3536 	 	 3696 	 	 70 
  39 	 	 680 	 	 187 	 	 7 	 	 2706 	 	 2880 	 	 81 
  40 	 	 230 	 	 77 	 	 6 	 	 369 	 	 530 	 	 62 
  41 	 	 489 	 	 533 	 	 7 	 	 3983 	 	 4044 	 	 78 
  42 	 	 253 	 	 66 	 	 7 	 	 3205 	 	 3299 	 	 56 
  43 	 	 413 	 	 769 	 	 9 	 	 3280 	 	 3420 	 	 90 
  44 	 	 105 	 	 98 	 	 5 	 	 879 	 	 949 	 	 94 
  45 	 	 435 	 	 373 	 	 6 	 	 1425 	 	 1532 	 	 98 
  46 	 	 497 	 	 552 	 	 8 	 	 3492 	 	 3653 	 	 94 
  47 	 	 436 	 	 749 	 	 8 	 	 896 	 	 966 	 	 63 
  48 	 	 144 	 	 428 	 	 9 	 	 2920 	 	 3094 	 	 69 
  49 	 	 432 	 	 815 	 	 8 	 	 1658 	 	 1827 	 	 83 
  50 	 	 385 	 	 545 	 	 8 	 	 137 	 	 307 	 	 97 
  51 	 	 545 	 	 668 	 	 5 	 	 2173 	 	 2296 	 	 61 
  52 	 	 851 	 	 367 	 	 10 	 	 3147 	 	 3250 	 	 51 
  53 	 	 647 	 	 114 	 	 9 	 	 1577 	 	 1734 	 	 80 
  54 	 	 760 	 	 516 	 	 9 	 	 3507 	 	 3653 	 	 66 
  55 	 	 3 	 	 709 	 	 5 	 	 1809 	 	 1866 	 	 62 
  56 	 	 667 	 	 755 	 	 8 	 	 1342 	 	 1508 	 	 60 
  57 	 	 723 	 	 757 	 	 5 	 	 1178 	 	 1315 	 	 60 
  58 	 	 233 	 	 870 	 	 10 	 	 3780 	 	 3853 	 	 72 
  59 	 	 582 	 	 418 	 	 7 	 	 379 	 	 509 	 	 88 
  60 	 	 174 	 	 269 	 	 6 	 	 2115 	 	 2254 	 	 68 
  61 	 	 85 	 	 962 	 	 6 	 	 3106 	 	 3237 	 	 72 
  62 	 	 622 	 	 664 	 	 9 	 	 1294 	 	 1480 	 	 71 
  63 	 	 543 	 	 499 	 	 9 	 	 376 	 	 573 	 	 99 
  64 	 	 296 	 	 156 	 	 5 	 	 1525 	 	 1655 	 	 59 
  65 	 	 900 	 	 517 	 	 10 	 	 3411 	 	 3606 	 	 90 
  66 	 	 441 	 	 200 	 	 7 	 	 2996 	 	 3118 	 	 50 
  67 	 	 544 	 	 702 	 	 8 	 	 1390 	 	 1479 	 	 90 
  68 	 	 648 	 	 468 	 	 9 	 	 475 	 	 674 	 	 64 
  69 	 	 907 	 	 778 	 	 10 	 	 827 	 	 889 	 	 96 
  70 	 	 709 	 	 752 	 	 10 	 	 2626 	 	 2695 	 	 56 
  71 	 	 159 	 	 73 	 	 7 	 	 385 	 	 512 	 	 77 
  72 	 	 859 	 	 487 	 	 9 	 	 3153 	 	 3323 	 	 85 
  73 	 	 789 	 	 243 	 	 7 	 	 1637 	 	 1764 	 	 66 
  74 	 	 407 	 	 852 	 	 8 	 	 2016 	 	 2109 	 	 73 
  75 	 	 325 	 	 654 	 	 7 	 	 2855 	 	 2949 	 	 93 
  76 	 	 68 	 	 987 	 	 7 	 	 3739 	 	 3816 	 	 61 
  77 	 	 175 	 	 3 	 	 7 	 	 2485 	 	 2650 	 	 80 
  78 	 	 650 	 	 710 	 	 9 	 	 962 	 	 1064 	 	 63 
  79 	 	 446 	 	 736 	 	 10 	 	 3847 	 	 4044 	 	 94 
  80 	 	 310 	 	 716 	 	 6 	 	 1709 	 	 1883 	 	 65 
  81 	 	 626 	 	 806 	 	 5 	 	 1557 	 	 1625 	 	 54 
  82 	 	 955 	 	 177 	 	 10 	 	 2494 	 	 2592 	 	 50 
  83 	 	 181 	 	 619 	 	 7 	 	 2645 	 	 2793 	 	 74 
  84 	 	 752 	 	 659 	 	 6 	 	 3266 	 	 3410 	 	 82 
  85 	 	 60 	 	 827 	 	 6 	 	 1341 	 	 1505 	 	 68 
  86 	 	 812 	 	 210 	 	 7 	 	 2902 	 	 3043 	 	 60 
  87 	 	 918 	 	 164 	 	 6 	 	 1527 	 	 1591 	 	 99 
  88 	 	 930 	 	 922 	 	 5 	 	 869 	 	 971 	 	 89 
  89 	 	 4 	 	 219 	 	 9 	 	 3597 	 	 3774 	 	 62 
  90 	 	 197 	 	 475 	 	 7 	 	 284 	 	 420 	 	 86 
  91 	 	 941 	 	 443 	 	 9 	 	 763 	 	 892 	 	 88 
  92 	 	 988 	 	 629 	 	 6 	 	 1444 	 	 1638 	 	 76 
  93 	 	 78 	 	 237 	 	 6 	 	 2420 	 	 2578 	 	 78 
  94 	 	 463 	 	 396 	 	 9 	 	 3331 	 	 3399 	 	 73 
  95 	 	 749 	 	 66 	 	 8 	 	 2848 	 	 2953 	 	 78 
  96 	 	 543 	 	 926 	 	 6 	 	 3226 	 	 3295 	 	 97 
  97 	 	 974 	 	 235 	 	 5 	 	 3633 	 	 3751 	 	 62 
  98 	 	 935 	 	 653 	 	 8 	 	 745 	 	 889 	 	 97 
  99 	 	 595 	 	 740 	 	 7 	 	 1904 	 	 2054 	 	 68 
  100 	 	 204 	 	 625 	 	 8 	 	 2192 	 	 2247 	 	 52 
 